p cnf 781 1953
-1 2 0
-3 2 0
-4 2 0
-5 2 0
-6 2 0
-7 2 0
1 3 4 5 6 7 -2 0
8 -2 0
-8 2 0
-3 9 0
-4 9 0
-5 9 0
-6 9 0
-7 9 0
3 4 5 6 7 -9 0
10 -9 0
-10 9 0
-4 11 0
-5 11 0
-6 11 0
-7 11 0
4 5 6 7 -11 0
12 -11 0
-12 11 0
-5 13 0
-6 13 0
-7 13 0
5 6 7 -13 0
14 -13 0
-14 13 0
-6 15 0
-7 15 0
6 7 -15 0
16 -15 0
-16 15 0
17 -15 0
-17 15 0
-18 19 0
-20 19 0
-21 19 0
-22 19 0
-23 19 0
-24 19 0
18 20 21 22 23 24 -19 0
25 -19 0
-25 19 0
-20 26 0
-21 26 0
-22 26 0
-23 26 0
-24 26 0
20 21 22 23 24 -26 0
27 -26 0
-27 26 0
-21 28 0
-22 28 0
-23 28 0
-24 28 0
21 22 23 24 -28 0
29 -28 0
-29 28 0
30 -28 0
-30 28 0
-23 31 0
-24 31 0
-21 31 0
-22 31 0
23 24 21 22 -31 0
32 -31 0
-32 31 0
33 -28 0
-33 28 0
-34 35 0
-36 35 0
-37 35 0
-38 35 0
34 36 37 38 -35 0
39 -35 0
-39 35 0
40 -35 0
-40 35 0
41 -35 0
-41 35 0
42 -35 0
-42 35 0
-43 44 0
-45 44 0
-46 44 0
-47 44 0
-48 44 0
-49 44 0
50 0
51 -44 0
-51 44 0
-45 52 0
-46 52 0
-47 52 0
-48 52 0
-49 52 0
45 46 47 48 49 -52 0
53 -52 0
-53 52 0
-46 54 0
-47 54 0
-48 54 0
-49 54 0
46 47 48 49 -54 0
55 -54 0
-55 54 0
56 -54 0
-56 54 0
57 -54 0
-57 54 0
58 -54 0
-58 54 0
-59 60 0
-61 60 0
-62 60 0
-63 60 0
-64 60 0
59 61 62 63 64 -60 0
65 -60 0
-65 60 0
-61 66 0
-62 66 0
-63 66 0
-64 66 0
61 62 63 64 -66 0
67 -66 0
-67 66 0
-62 68 0
-63 68 0
-64 68 0
62 63 64 -68 0
69 -68 0
-69 68 0
-63 70 0
-64 70 0
63 64 -70 0
71 -70 0
-71 70 0
72 -64 0
64 -72 0
-73 74 0
-75 74 0
-76 74 0
-77 74 0
-78 74 0
-79 74 0
-80 74 0
81 0
82 -74 0
-82 74 0
-75 83 0
-76 83 0
-77 83 0
-78 83 0
-79 83 0
-80 83 0
84 0
85 -83 0
-85 83 0
-76 86 0
-77 86 0
-78 86 0
-79 86 0
-80 86 0
76 77 78 79 80 -86 0
87 -86 0
-87 86 0
-77 88 0
-78 88 0
-79 88 0
-80 88 0
77 78 79 80 -88 0
89 -88 0
-89 88 0
90 -88 0
-90 88 0
91 -88 0
-91 88 0
92 -88 0
-92 88 0
-93 94 0
-95 94 0
-96 94 0
-97 94 0
-98 94 0
-99 94 0
-100 94 0
101 0
102 -94 0
-102 94 0
-95 103 0
-96 103 0
-97 103 0
-98 103 0
-99 103 0
-100 103 0
104 0
105 -103 0
-105 103 0
-96 106 0
-97 106 0
-98 106 0
-99 106 0
-100 106 0
96 97 98 99 100 -106 0
107 -106 0
-107 106 0
-97 108 0
-98 108 0
-99 108 0
-100 108 0
97 98 99 100 -108 0
109 -108 0
-109 108 0
-98 110 0
-99 110 0
-100 110 0
98 99 100 -110 0
111 -110 0
-111 110 0
112 -110 0
-112 110 0
113 -110 0
-113 110 0
-34 114 0
-36 114 0
-37 114 0
-38 114 0
-115 114 0
-116 114 0
117 0
118 -114 0
-118 114 0
-34 119 0
-36 119 0
-37 119 0
-38 119 0
-116 119 0
34 36 37 38 116 -119 0
120 -119 0
-120 119 0
-121 122 0
-123 122 0
-124 122 0
-125 122 0
-126 122 0
-127 122 0
-128 122 0
129 0
130 -122 0
-130 122 0
-123 131 0
-124 131 0
-125 131 0
-126 131 0
-127 131 0
-128 131 0
132 0
133 -131 0
-133 131 0
-124 134 0
-125 134 0
-126 134 0
-127 134 0
-128 134 0
124 125 126 127 128 -134 0
135 -134 0
-135 134 0
-125 136 0
-126 136 0
-127 136 0
-128 136 0
125 126 127 128 -136 0
137 -136 0
-137 136 0
-126 138 0
-127 138 0
-128 138 0
126 127 128 -138 0
139 -138 0
-139 138 0
140 -138 0
-140 138 0
141 -138 0
-141 138 0
-5 142 0
-6 142 0
-7 142 0
-143 142 0
-144 142 0
5 6 7 143 144 -142 0
145 -142 0
-145 142 0
-5 146 0
-6 146 0
-7 146 0
-144 146 0
5 6 7 144 -146 0
147 -146 0
-147 146 0
-148 149 0
-150 149 0
-151 149 0
148 150 151 -149 0
152 -149 0
-152 149 0
-150 153 0
-151 153 0
150 151 -153 0
154 -153 0
-154 153 0
155 -151 0
151 -155 0
-156 157 0
-158 157 0
-159 157 0
-160 157 0
-161 157 0
-162 157 0
-163 157 0
164 0
165 -157 0
-165 157 0
-158 166 0
-159 166 0
-160 166 0
-161 166 0
-162 166 0
-163 166 0
167 0
168 -166 0
-168 166 0
-159 169 0
-160 169 0
-161 169 0
-162 169 0
-163 169 0
159 160 161 162 163 -169 0
170 -169 0
-170 169 0
-160 171 0
-161 171 0
-162 171 0
-163 171 0
160 161 162 163 -171 0
172 -171 0
-172 171 0
173 -171 0
-173 171 0
174 -171 0
-174 171 0
175 -171 0
-175 171 0
-176 177 0
-178 177 0
-179 177 0
-180 177 0
-181 177 0
176 178 179 180 181 -177 0
182 -177 0
-182 177 0
-178 183 0
-179 183 0
-180 183 0
-181 183 0
178 179 180 181 -183 0
184 -183 0
-184 183 0
-179 185 0
-180 185 0
-181 185 0
179 180 181 -185 0
186 -185 0
-186 185 0
-180 187 0
-181 187 0
180 181 -187 0
188 -187 0
-188 187 0
189 -181 0
181 -189 0
-190 191 0
-192 191 0
-193 191 0
-194 191 0
-195 191 0
190 192 193 194 195 -191 0
196 -191 0
-196 191 0
-192 197 0
-193 197 0
-194 197 0
-195 197 0
192 193 194 195 -197 0
198 -197 0
-198 197 0
-193 199 0
-194 199 0
-195 199 0
193 194 195 -199 0
200 -199 0
-200 199 0
-194 201 0
-195 201 0
194 195 -201 0
202 -201 0
-202 201 0
203 -201 0
-203 201 0
-148 204 0
-150 204 0
-151 204 0
-205 204 0
148 150 151 205 -204 0
206 -204 0
-206 204 0
-160 207 0
-161 207 0
-162 207 0
-163 207 0
-208 207 0
-209 207 0
-210 207 0
211 0
212 -207 0
-212 207 0
-160 213 0
-161 213 0
-162 213 0
-163 213 0
-209 213 0
-210 213 0
214 0
215 -213 0
-215 213 0
-160 216 0
-161 216 0
-162 216 0
-163 216 0
-210 216 0
160 161 162 163 210 -216 0
217 -216 0
-217 216 0
-98 218 0
-99 218 0
-100 218 0
-219 218 0
-220 218 0
98 99 100 219 220 -218 0
221 -218 0
-221 218 0
-98 222 0
-99 222 0
-100 222 0
-220 222 0
98 99 100 220 -222 0
223 -222 0
-223 222 0
-176 224 0
-178 224 0
-179 224 0
-180 224 0
-181 224 0
-225 224 0
-226 224 0
-227 224 0
-228 224 0
-229 224 0
230 0
231 -224 0
-231 224 0
-176 232 0
-178 232 0
-179 232 0
-180 232 0
-181 232 0
-226 232 0
-227 232 0
-228 232 0
-229 232 0
233 0
234 -232 0
-234 232 0
-176 235 0
-178 235 0
-179 235 0
-180 235 0
-181 235 0
-227 235 0
-228 235 0
-229 235 0
236 0
237 -235 0
-237 235 0
-176 238 0
-178 238 0
-179 238 0
-180 238 0
-181 238 0
-228 238 0
-229 238 0
239 0
240 -238 0
-240 238 0
-176 241 0
-178 241 0
-179 241 0
-180 241 0
-181 241 0
-229 241 0
242 0
243 -241 0
-243 241 0
-150 244 0
-151 244 0
-245 244 0
-246 244 0
-247 244 0
150 151 245 246 247 -244 0
248 -244 0
-248 244 0
-150 249 0
-151 249 0
-246 249 0
-247 249 0
150 151 246 247 -249 0
250 -249 0
-250 249 0
-150 251 0
-151 251 0
-247 251 0
150 151 247 -251 0
252 -251 0
-252 251 0
253 254 0
255 254 0
-253 -255 -254 0
-1 254 -256 0
1 -254 -256 0
256 -254 -1 0
1 254 256 0
-256 0
257 258 0
259 258 0
-257 -259 -258 0
-3 258 -260 0
3 -258 -260 0
260 -258 -3 0
3 258 260 0
-260 0
261 262 0
263 262 0
-261 -263 -262 0
-4 262 -264 0
4 -262 -264 0
264 -262 -4 0
4 262 264 0
-264 0
265 266 0
267 266 0
-265 -267 -266 0
-5 266 -268 0
5 -266 -268 0
268 -266 -5 0
5 266 268 0
-268 0
269 270 0
271 270 0
-269 -271 -270 0
-6 270 -272 0
6 -270 -272 0
272 -270 -6 0
6 270 272 0
-272 0
273 274 0
275 274 0
-273 -275 -274 0
-7 274 -276 0
7 -274 -276 0
276 -274 -7 0
7 274 276 0
-276 0
277 278 0
279 278 0
-277 -279 -278 0
-18 278 -280 0
18 -278 -280 0
280 -278 -18 0
18 278 280 0
-280 0
281 282 0
283 282 0
-281 -283 -282 0
-20 282 -284 0
20 -282 -284 0
284 -282 -20 0
20 282 284 0
-284 0
285 286 0
287 286 0
-285 -287 -286 0
-21 286 -288 0
21 -286 -288 0
288 -286 -21 0
21 286 288 0
-288 0
289 290 0
291 290 0
-289 -291 -290 0
-22 290 -292 0
22 -290 -292 0
292 -290 -22 0
22 290 292 0
-292 0
293 294 0
295 294 0
-293 -295 -294 0
-23 294 -296 0
23 -294 -296 0
296 -294 -23 0
23 294 296 0
-296 0
297 298 0
299 298 0
-297 -299 -298 0
-24 298 -300 0
24 -298 -300 0
300 -298 -24 0
24 298 300 0
-300 0
301 302 0
303 302 0
-301 -303 -302 0
-34 302 -304 0
34 -302 -304 0
304 -302 -34 0
34 302 304 0
-304 0
305 306 0
307 306 0
-305 -307 -306 0
-36 306 -308 0
36 -306 -308 0
308 -306 -36 0
36 306 308 0
-308 0
309 310 0
311 310 0
-309 -311 -310 0
-37 310 -312 0
37 -310 -312 0
312 -310 -37 0
37 310 312 0
-312 0
313 314 0
315 314 0
-313 -315 -314 0
-38 314 -316 0
38 -314 -316 0
316 -314 -38 0
38 314 316 0
-316 0
317 318 0
319 318 0
-317 -319 -318 0
-43 318 -320 0
43 -318 -320 0
320 -318 -43 0
43 318 320 0
-320 0
321 322 0
323 322 0
-321 -323 -322 0
-45 322 -324 0
45 -322 -324 0
324 -322 -45 0
45 322 324 0
-324 0
325 326 0
327 326 0
-325 -327 -326 0
-46 326 -328 0
46 -326 -328 0
328 -326 -46 0
46 326 328 0
-328 0
329 330 0
331 330 0
-329 -331 -330 0
-47 330 -332 0
47 -330 -332 0
332 -330 -47 0
47 330 332 0
-332 0
333 334 0
335 334 0
-333 -335 -334 0
-48 334 -336 0
48 -334 -336 0
336 -334 -48 0
48 334 336 0
-336 0
337 338 0
339 338 0
-337 -339 -338 0
-49 338 -340 0
49 -338 -340 0
340 -338 -49 0
49 338 340 0
-340 0
341 342 0
343 342 0
-341 -343 -342 0
-59 342 -344 0
59 -342 -344 0
344 -342 -59 0
59 342 344 0
-344 0
345 346 0
347 346 0
-345 -347 -346 0
-61 346 -348 0
61 -346 -348 0
348 -346 -61 0
61 346 348 0
-348 0
349 350 0
351 350 0
-349 -351 -350 0
-62 350 -352 0
62 -350 -352 0
352 -350 -62 0
62 350 352 0
-352 0
353 354 0
355 354 0
-353 -355 -354 0
-63 354 -356 0
63 -354 -356 0
356 -354 -63 0
63 354 356 0
-356 0
357 358 0
359 358 0
-357 -359 -358 0
-64 358 -360 0
64 -358 -360 0
360 -358 -64 0
64 358 360 0
-360 0
361 362 0
363 362 0
-361 -363 -362 0
-73 362 -364 0
73 -362 -364 0
364 -362 -73 0
73 362 364 0
-364 0
365 366 0
367 366 0
-365 -367 -366 0
-75 366 -368 0
75 -366 -368 0
368 -366 -75 0
75 366 368 0
-368 0
369 370 0
371 370 0
-369 -371 -370 0
-76 370 -372 0
76 -370 -372 0
372 -370 -76 0
76 370 372 0
-372 0
373 374 0
375 374 0
-373 -375 -374 0
-77 374 -376 0
77 -374 -376 0
376 -374 -77 0
77 374 376 0
-376 0
377 378 0
379 378 0
-377 -379 -378 0
-78 378 -380 0
78 -378 -380 0
380 -378 -78 0
78 378 380 0
-380 0
381 382 0
383 382 0
-381 -383 -382 0
-79 382 -384 0
79 -382 -384 0
384 -382 -79 0
79 382 384 0
-384 0
385 386 0
387 386 0
-385 -387 -386 0
-80 386 -388 0
80 -386 -388 0
388 -386 -80 0
80 386 388 0
-388 0
389 390 0
391 390 0
-389 -391 -390 0
-93 390 -392 0
93 -390 -392 0
392 -390 -93 0
93 390 392 0
-392 0
393 394 0
395 394 0
-393 -395 -394 0
-95 394 -396 0
95 -394 -396 0
396 -394 -95 0
95 394 396 0
-396 0
397 398 0
399 398 0
-397 -399 -398 0
-96 398 -400 0
96 -398 -400 0
400 -398 -96 0
96 398 400 0
-400 0
401 402 0
403 402 0
-401 -403 -402 0
-97 402 -404 0
97 -402 -404 0
404 -402 -97 0
97 402 404 0
-404 0
405 406 0
407 406 0
-405 -407 -406 0
-98 406 -408 0
98 -406 -408 0
408 -406 -98 0
98 406 408 0
-408 0
409 410 0
411 410 0
-409 -411 -410 0
-99 410 -412 0
99 -410 -412 0
412 -410 -99 0
99 410 412 0
-412 0
413 414 0
415 414 0
-413 -415 -414 0
-100 414 -416 0
100 -414 -416 0
416 -414 -100 0
100 414 416 0
-416 0
417 418 0
419 418 0
-417 -419 -418 0
-115 418 -420 0
115 -418 -420 0
420 -418 -115 0
115 418 420 0
-420 0
421 422 0
423 422 0
-421 -423 -422 0
-116 422 -424 0
116 -422 -424 0
424 -422 -116 0
116 422 424 0
-424 0
425 426 0
427 426 0
-425 -427 -426 0
-121 426 -428 0
121 -426 -428 0
428 -426 -121 0
121 426 428 0
-428 0
429 430 0
431 430 0
-429 -431 -430 0
-123 430 -432 0
123 -430 -432 0
432 -430 -123 0
123 430 432 0
-432 0
433 434 0
435 434 0
-433 -435 -434 0
-124 434 -436 0
124 -434 -436 0
436 -434 -124 0
124 434 436 0
-436 0
437 438 0
439 438 0
-437 -439 -438 0
-125 438 -440 0
125 -438 -440 0
440 -438 -125 0
125 438 440 0
-440 0
441 442 0
443 442 0
-441 -443 -442 0
-126 442 -444 0
126 -442 -444 0
444 -442 -126 0
126 442 444 0
-444 0
445 446 0
447 446 0
-445 -447 -446 0
-127 446 -448 0
127 -446 -448 0
448 -446 -127 0
127 446 448 0
-448 0
449 450 0
451 450 0
-449 -451 -450 0
-128 450 -452 0
128 -450 -452 0
452 -450 -128 0
128 450 452 0
-452 0
453 454 0
455 454 0
-453 -455 -454 0
-143 454 -456 0
143 -454 -456 0
456 -454 -143 0
143 454 456 0
-456 0
457 458 0
459 458 0
-457 -459 -458 0
-144 458 -460 0
144 -458 -460 0
460 -458 -144 0
144 458 460 0
-460 0
461 462 0
463 462 0
-461 -463 -462 0
-148 462 -464 0
148 -462 -464 0
464 -462 -148 0
148 462 464 0
-464 0
465 466 0
467 466 0
-465 -467 -466 0
-150 466 -468 0
150 -466 -468 0
468 -466 -150 0
150 466 468 0
-468 0
469 470 0
471 470 0
-469 -471 -470 0
-151 470 -472 0
151 -470 -472 0
472 -470 -151 0
151 470 472 0
-472 0
473 474 0
475 474 0
-473 -475 -474 0
-156 474 -476 0
156 -474 -476 0
476 -474 -156 0
156 474 476 0
-476 0
477 478 0
479 478 0
-477 -479 -478 0
-158 478 -480 0
158 -478 -480 0
480 -478 -158 0
158 478 480 0
-480 0
481 482 0
483 482 0
-481 -483 -482 0
-159 482 -484 0
159 -482 -484 0
484 -482 -159 0
159 482 484 0
-484 0
485 486 0
487 486 0
-485 -487 -486 0
-160 486 -488 0
160 -486 -488 0
488 -486 -160 0
160 486 488 0
-488 0
489 490 0
491 490 0
-489 -491 -490 0
-161 490 -492 0
161 -490 -492 0
492 -490 -161 0
161 490 492 0
-492 0
493 494 0
495 494 0
-493 -495 -494 0
-162 494 -496 0
162 -494 -496 0
496 -494 -162 0
162 494 496 0
-496 0
497 498 0
499 498 0
-497 -499 -498 0
-163 498 -500 0
163 -498 -500 0
500 -498 -163 0
163 498 500 0
-500 0
501 502 0
503 502 0
-501 -503 -502 0
-176 502 -504 0
176 -502 -504 0
504 -502 -176 0
176 502 504 0
-504 0
505 506 0
507 506 0
-505 -507 -506 0
-178 506 -508 0
178 -506 -508 0
508 -506 -178 0
178 506 508 0
-508 0
509 510 0
511 510 0
-509 -511 -510 0
-179 510 -512 0
179 -510 -512 0
512 -510 -179 0
179 510 512 0
-512 0
513 514 0
515 514 0
-513 -515 -514 0
-180 514 -516 0
180 -514 -516 0
516 -514 -180 0
180 514 516 0
-516 0
517 518 0
519 518 0
-517 -519 -518 0
-181 518 -520 0
181 -518 -520 0
520 -518 -181 0
181 518 520 0
-520 0
521 522 0
523 522 0
-521 -523 -522 0
-190 522 -524 0
190 -522 -524 0
524 -522 -190 0
190 522 524 0
-524 0
525 526 0
527 526 0
-525 -527 -526 0
-192 526 -528 0
192 -526 -528 0
528 -526 -192 0
192 526 528 0
-528 0
529 530 0
531 530 0
-529 -531 -530 0
-193 530 -532 0
193 -530 -532 0
532 -530 -193 0
193 530 532 0
-532 0
533 534 0
535 534 0
-533 -535 -534 0
-194 534 -536 0
194 -534 -536 0
536 -534 -194 0
194 534 536 0
-536 0
537 538 0
539 538 0
-537 -539 -538 0
-195 538 -540 0
195 -538 -540 0
540 -538 -195 0
195 538 540 0
-540 0
541 542 0
543 542 0
-541 -543 -542 0
-205 542 -544 0
205 -542 -544 0
544 -542 -205 0
205 542 544 0
-544 0
545 546 0
547 546 0
-545 -547 -546 0
-208 546 -548 0
208 -546 -548 0
548 -546 -208 0
208 546 548 0
-548 0
549 550 0
551 550 0
-549 -551 -550 0
-209 550 -552 0
209 -550 -552 0
552 -550 -209 0
209 550 552 0
-552 0
553 554 0
555 554 0
-553 -555 -554 0
-210 554 -556 0
210 -554 -556 0
556 -554 -210 0
210 554 556 0
-556 0
557 558 0
559 558 0
-557 -559 -558 0
-219 558 -560 0
219 -558 -560 0
560 -558 -219 0
219 558 560 0
-560 0
561 562 0
563 562 0
-561 -563 -562 0
-220 562 -564 0
220 -562 -564 0
564 -562 -220 0
220 562 564 0
-564 0
565 566 0
567 566 0
-565 -567 -566 0
-225 566 -568 0
225 -566 -568 0
568 -566 -225 0
225 566 568 0
-568 0
569 570 0
571 570 0
-569 -571 -570 0
-226 570 -572 0
226 -570 -572 0
572 -570 -226 0
226 570 572 0
-572 0
573 574 0
575 574 0
-573 -575 -574 0
-227 574 -576 0
227 -574 -576 0
576 -574 -227 0
227 574 576 0
-576 0
577 578 0
579 578 0
-577 -579 -578 0
-228 578 -580 0
228 -578 -580 0
580 -578 -228 0
228 578 580 0
-580 0
581 582 0
583 582 0
-581 -583 -582 0
-229 582 -584 0
229 -582 -584 0
584 -582 -229 0
229 582 584 0
-584 0
585 586 0
587 586 0
-585 -587 -586 0
-245 586 -588 0
245 -586 -588 0
588 -586 -245 0
245 586 588 0
-588 0
589 590 0
591 590 0
-589 -591 -590 0
-246 590 -592 0
246 -590 -592 0
592 -590 -246 0
246 590 592 0
-592 0
593 594 0
595 594 0
-593 -595 -594 0
-247 594 -596 0
247 -594 -596 0
596 -594 -247 0
247 594 596 0
-596 0
-253 0
-257 0
-261 0
265 0
-269 0
-273 0
-277 0
281 0
-285 0
289 0
293 0
297 0
301 0
305 0
309 0
313 0
-317 0
-321 0
325 0
329 0
-333 0
337 0
341 0
345 0
349 0
-353 0
357 0
-361 0
365 0
-369 0
373 0
-377 0
381 0
385 0
-389 0
393 0
-397 0
-401 0
-405 0
-409 0
413 0
-417 0
421 0
-425 0
429 0
433 0
-437 0
441 0
-445 0
-449 0
-453 0
457 0
-461 0
465 0
-469 0
-473 0
-477 0
-481 0
485 0
489 0
-493 0
497 0
501 0
-505 0
509 0
-513 0
517 0
-521 0
-525 0
529 0
533 0
-537 0
-541 0
-545 0
-549 0
-553 0
-557 0
561 0
-565 0
569 0
573 0
577 0
-581 0
-585 0
-589 0
-593 0
-597 598 0
598 -599 0
598 -600 0
598 -601 0
598 -602 0
-603 598 0
597 599 600 601 602 603 -598 0
255 -598 0
-255 598 0
-599 604 0
-600 604 0
-601 604 0
-602 604 0
-603 604 0
599 600 601 602 603 -604 0
259 -604 0
-259 604 0
-600 605 0
-601 605 0
-602 605 0
-603 605 0
600 601 602 603 -605 0
263 -605 0
-263 605 0
-601 606 0
-602 606 0
-603 606 0
601 602 603 -606 0
267 -606 0
-267 606 0
-602 607 0
-603 607 0
602 603 -607 0
271 -607 0
-271 607 0
275 -607 0
-275 607 0
-608 609 0
609 -610 0
-611 609 0
609 -612 0
-613 609 0
-614 609 0
608 610 611 612 613 614 -609 0
279 -609 0
-279 609 0
-610 615 0
-611 615 0
-612 615 0
-613 615 0
-614 615 0
610 611 612 613 614 -615 0
283 -615 0
-283 615 0
-611 616 0
-612 616 0
-613 616 0
-614 616 0
611 612 613 614 -616 0
287 -616 0
-287 616 0
291 -616 0
-291 616 0
-613 617 0
-614 617 0
-611 617 0
-612 617 0
613 614 611 612 -617 0
295 -617 0
-295 617 0
299 -616 0
-299 616 0
618 -619 0
618 -620 0
-621 618 0
-622 618 0
619 620 621 622 -618 0
303 -618 0
-303 618 0
307 -618 0
-307 618 0
311 -618 0
-311 618 0
315 -618 0
-315 618 0
-623 624 0
624 -625 0
624 -626 0
624 -627 0
624 -628 0
-629 624 0
630 0
319 -624 0
-319 624 0
-625 631 0
-626 631 0
-627 631 0
-628 631 0
-629 631 0
625 626 627 628 629 -631 0
323 -631 0
-323 631 0
-626 632 0
-627 632 0
-628 632 0
-629 632 0
626 627 628 629 -632 0
327 -632 0
-327 632 0
331 -632 0
-331 632 0
335 -632 0
-335 632 0
339 -632 0
-339 632 0
-633 634 0
-635 634 0
634 -636 0
634 -637 0
634 -638 0
633 635 636 637 638 -634 0
343 -634 0
-343 634 0
-635 639 0
-636 639 0
-637 639 0
-638 639 0
635 636 637 638 -639 0
347 -639 0
-347 639 0
-636 640 0
-637 640 0
-638 640 0
636 637 638 -640 0
351 -640 0
-351 640 0
-637 641 0
-638 641 0
637 638 -641 0
355 -641 0
-355 641 0
359 -638 0
638 -359 0
-642 643 0
-644 643 0
643 -645 0
-646 643 0
643 -647 0
-648 643 0
643 -649 0
650 0
363 -643 0
-363 643 0
-644 651 0
-645 651 0
-646 651 0
-647 651 0
-648 651 0
-649 651 0
652 0
367 -651 0
-367 651 0
-645 653 0
-646 653 0
-647 653 0
-648 653 0
-649 653 0
645 646 647 648 649 -653 0
371 -653 0
-371 653 0
-646 654 0
-647 654 0
-648 654 0
-649 654 0
646 647 648 649 -654 0
375 -654 0
-375 654 0
379 -654 0
-379 654 0
383 -654 0
-383 654 0
387 -654 0
-387 654 0
655 -656 0
-657 655 0
655 -658 0
-659 655 0
-660 655 0
-661 655 0
-662 655 0
663 0
391 -655 0
-391 655 0
-657 664 0
-658 664 0
-659 664 0
-660 664 0
-661 664 0
-662 664 0
665 0
395 -664 0
-395 664 0
-658 666 0
-659 666 0
-660 666 0
-661 666 0
-662 666 0
658 659 660 661 662 -666 0
399 -666 0
-399 666 0
-659 667 0
-660 667 0
-661 667 0
-662 667 0
659 660 661 662 -667 0
403 -667 0
-403 667 0
-660 668 0
-661 668 0
-662 668 0
660 661 662 -668 0
407 -668 0
-407 668 0
411 -668 0
-411 668 0
415 -668 0
-415 668 0
-619 669 0
-620 669 0
-621 669 0
-622 669 0
-670 669 0
669 -671 0
672 0
419 -669 0
-419 669 0
-619 673 0
-620 673 0
-621 673 0
-622 673 0
-671 673 0
619 620 621 622 671 -673 0
423 -673 0
-423 673 0
-674 675 0
675 -676 0
-677 675 0
-678 675 0
675 -679 0
-680 675 0
675 -681 0
682 0
427 -675 0
-427 675 0
-676 683 0
-677 683 0
-678 683 0
-679 683 0
-680 683 0
-681 683 0
684 0
431 -683 0
-431 683 0
-677 685 0
-678 685 0
-679 685 0
-680 685 0
-681 685 0
677 678 679 680 681 -685 0
435 -685 0
-435 685 0
-678 686 0
-679 686 0
-680 686 0
-681 686 0
678 679 680 681 -686 0
439 -686 0
-439 686 0
-679 687 0
-680 687 0
-681 687 0
679 680 681 -687 0
443 -687 0
-443 687 0
447 -687 0
-447 687 0
451 -687 0
-451 687 0
-601 688 0
-602 688 0
-603 688 0
688 -689 0
-690 688 0
601 602 603 689 690 -688 0
455 -688 0
-455 688 0
-601 691 0
-602 691 0
-603 691 0
-690 691 0
601 602 603 690 -691 0
459 -691 0
-459 691 0
692 -693 0
-694 692 0
-695 692 0
693 694 695 -692 0
463 -692 0
-463 692 0
-694 696 0
-695 696 0
694 695 -696 0
467 -696 0
-467 696 0
471 -695 0
695 -471 0
697 -698 0
697 -699 0
-700 697 0
-701 697 0
-702 697 0
-703 697 0
-704 697 0
705 0
475 -697 0
-475 697 0
-699 706 0
-700 706 0
-701 706 0
-702 706 0
-703 706 0
-704 706 0
707 0
479 -706 0
-479 706 0
-700 708 0
-701 708 0
-702 708 0
-703 708 0
-704 708 0
700 701 702 703 704 -708 0
483 -708 0
-483 708 0
-701 709 0
-702 709 0
-703 709 0
-704 709 0
701 702 703 704 -709 0
487 -709 0
-487 709 0
491 -709 0
-491 709 0
495 -709 0
-495 709 0
499 -709 0
-499 709 0
-710 711 0
-712 711 0
-713 711 0
-714 711 0
-715 711 0
710 712 713 714 715 -711 0
503 -711 0
-503 711 0
-712 716 0
-713 716 0
-714 716 0
-715 716 0
712 713 714 715 -716 0
507 -716 0
-507 716 0
-713 717 0
-714 717 0
-715 717 0
713 714 715 -717 0
511 -717 0
-511 717 0
-714 718 0
-715 718 0
714 715 -718 0
515 -718 0
-515 718 0
519 -715 0
715 -519 0
-719 720 0
-721 720 0
-722 720 0
-723 720 0
-724 720 0
719 721 722 723 724 -720 0
523 -720 0
-523 720 0
-721 725 0
-722 725 0
-723 725 0
-724 725 0
721 722 723 724 -725 0
527 -725 0
-527 725 0
-722 726 0
-723 726 0
-724 726 0
722 723 724 -726 0
531 -726 0
-531 726 0
-723 727 0
-724 727 0
723 724 -727 0
535 -727 0
-535 727 0
539 -727 0
-539 727 0
-693 728 0
-694 728 0
-695 728 0
728 -729 0
693 694 695 729 -728 0
543 -728 0
-543 728 0
-701 730 0
-702 730 0
-703 730 0
-704 730 0
-731 730 0
730 -732 0
730 -733 0
734 0
547 -730 0
-547 730 0
-701 735 0
-702 735 0
-703 735 0
-704 735 0
-732 735 0
-733 735 0
736 0
551 -735 0
-551 735 0
-701 737 0
-702 737 0
-703 737 0
-704 737 0
-733 737 0
701 702 703 704 733 -737 0
555 -737 0
-555 737 0
-660 738 0
-661 738 0
-662 738 0
-739 738 0
-740 738 0
660 661 662 739 740 -738 0
559 -738 0
-559 738 0
-660 741 0
-661 741 0
-662 741 0
-740 741 0
660 661 662 740 -741 0
563 -741 0
-563 741 0
-710 742 0
-712 742 0
-713 742 0
-714 742 0
-715 742 0
742 -743 0
-744 742 0
-745 742 0
-746 742 0
-747 742 0
748 0
567 -742 0
-567 742 0
-710 749 0
-712 749 0
-713 749 0
-714 749 0
-715 749 0
-744 749 0
-745 749 0
-746 749 0
-747 749 0
750 0
571 -749 0
-571 749 0
-710 751 0
-712 751 0
-713 751 0
-714 751 0
-715 751 0
-745 751 0
-746 751 0
-747 751 0
752 0
575 -751 0
-575 751 0
-710 753 0
-712 753 0
-713 753 0
-714 753 0
-715 753 0
-746 753 0
-747 753 0
754 0
579 -753 0
-579 753 0
-710 755 0
-712 755 0
-713 755 0
-714 755 0
-715 755 0
-747 755 0
756 0
583 -755 0
-583 755 0
-694 757 0
-695 757 0
-758 757 0
757 -759 0
-760 757 0
694 695 758 759 760 -757 0
587 -757 0
-587 757 0
-694 761 0
-695 761 0
-759 761 0
-760 761 0
694 695 759 760 -761 0
591 -761 0
-591 761 0
-694 762 0
-695 762 0
-760 762 0
694 695 760 -762 0
595 -762 0
-595 762 0
-597 0
599 0
600 0
601 0
602 0
-603 0
-608 0
610 0
-611 0
612 0
-613 0
-614 0
619 0
620 0
-621 0
-622 0
-623 0
625 0
626 0
627 0
628 0
-629 0
-633 0
-635 0
636 0
637 0
638 0
-642 0
-644 0
645 0
-646 0
647 0
-648 0
649 0
656 0
-657 0
658 0
-659 0
-660 0
-661 0
-662 0
-670 0
671 0
-674 0
676 0
-677 0
-678 0
679 0
-680 0
681 0
689 0
-690 0
693 0
-694 0
-695 0
698 0
699 0
-700 0
-701 0
-702 0
-703 0
-704 0
-710 0
-712 0
-713 0
-714 0
-715 0
-719 0
-721 0
-722 0
-723 0
-724 0
729 0
-731 0
732 0
733 0
-739 0
-740 0
743 0
-744 0
-745 0
-746 0
-747 0
-758 0
759 0
-760 0
763 0
764 0
765 0
766 0
767 0
768 0
769 0
770 0
771 0
772 0
-773 0
-774 0
-775 0
-776 0
-777 0
-778 0
-779 0
-780 0
-781 0
